# Part of the Crystallography Open Database
# All data on this site have been placed in the public domain by the contributors.
data_9008506
loop_
_publ_author_name
'Wyckoff, R. W. G.'
_publ_section_title
;
 Second edition. Interscience Publishers, New York, New York
 Hexagonal closest packed, hcp, structure
;
_journal_name_full               'Crystal Structures'
_journal_page_first              7
_journal_page_last               83
_journal_volume                  1
_journal_year                    1963
_chemical_formula_structural     Mg
_chemical_formula_sum            Mg
_space_group_IT_number           194
_symmetry_space_group_name_Hall  '-P 6c 2c'
_symmetry_space_group_name_H-M   'P 63/m m c'
_cell_angle_alpha                90
_cell_angle_beta                 90
_cell_angle_gamma                120
_cell_length_a                   3.20927
_cell_length_b                   3.20927
_cell_length_c                   5.21033
_cell_volume                     46.474
_exptl_crystal_density_diffrn    1.737
_cod_database_code               9008506
loop_
_symmetry_equiv_pos_as_xyz
x,y,z
x-y,x,1/2+z
-y,x-y,z
-x,-y,1/2+z
-x+y,-x,z
y,-x+y,1/2+z
-y,-x,1/2-z
x-y,-y,-z
x,x-y,1/2-z
y,x,-z
-x+y,y,1/2-z
-x,-x+y,-z
-x,-y,-z
-x+y,-x,1/2-z
y,-x+y,-z
x,y,1/2-z
x-y,x,-z
-y,x-y,1/2-z
y,x,1/2+z
-x+y,y,z
-x,-x+y,1/2+z
-y,-x,z
x-y,-y,1/2+z
x,x-y,z
loop_
_atom_site_label
_atom_site_fract_x
_atom_site_fract_y
_atom_site_fract_z
Mg   0.33333   0.66667   0.25000
