# Part of the Crystallography Open Database
# All data on this site have been placed in the public domain by the contributors.
data_9013036
loop_
_publ_author_name
'Wyckoff, R. W. G.'
_publ_section_title
;
 Second edition. Interscience Publishers, New York, New York
 Body centered cubic, bcc, structure
;
_journal_name_full               'Crystal Structures'
_journal_page_first              7
_journal_page_last               83
_journal_volume                  1
_journal_year                    1963
_chemical_formula_structural     Fe
_chemical_formula_sum            Fe
_chemical_name_mineral           'Iron-alpha'
_space_group_IT_number           229
_symmetry_space_group_name_Hall  '-I 4 2 3'
_symmetry_space_group_name_H-M   'I m -3 m'
_cell_angle_alpha                90
_cell_angle_beta                 90
_cell_angle_gamma                90
_cell_length_a                   2.8665
_cell_length_b                   2.8665
_cell_length_c                   2.8665
_cell_volume                     23.554
_exptl_crystal_density_diffrn    7.875
_cod_database_code               9013036
_cell_measurement_temperature    298
loop_
_symmetry_equiv_pos_as_xyz
x,y,z
1/2+x,1/2+y,1/2+z
z,x,y
1/2+z,1/2+x,1/2+y
y,z,x
1/2+y,1/2+z,1/2+x
x,y,-z
1/2+x,1/2+y,1/2-z
-z,x,y
1/2-z,1/2+x,1/2+y
y,-z,x
1/2+y,1/2-z,1/2+x
-z,x,-y
1/2-z,1/2+x,1/2-y
-y,-z,x
1/2-y,1/2-z,1/2+x
x,-y,-z
1/2+x,1/2-y,1/2-z
z,-x,-y
1/2+z,1/2-x,1/2-y
-y,z,-x
1/2-y,1/2+z,1/2-x
z,-x,y
1/2+z,1/2-x,1/2+y
y,z,-x
1/2+y,1/2+z,1/2-x
-x,y,-z
1/2-x,1/2+y,1/2-z
-z,-x,-y
1/2-z,1/2-x,1/2-y
-y,-z,-x
1/2-y,1/2-z,1/2-x
-x,-y,-z
1/2-x,1/2-y,1/2-z
-z,-x,-y
1/2-z,1/2-x,1/2-y
-y,-z,-x
1/2-y,1/2-z,1/2-x
-x,-y,z
1/2-x,1/2-y,1/2+z
z,-x,-y
1/2+z,1/2-x,1/2-y
-y,z,-x
1/2-y,1/2+z,1/2-x
z,-x,y
1/2+z,1/2-x,1/2+y
y,z,-x
1/2+y,1/2+z,1/2-x
-x,y,z
1/2-x,1/2+y,1/2+z
-z,x,y
1/2-z,1/2+x,1/2+y
y,-z,x
1/2+y,1/2-z,1/2+x
-z,x,-y
1/2-z,1/2+x,1/2-y
-y,-z,x
1/2-y,1/2-z,1/2+x
x,-y,z
1/2+x,1/2-y,1/2+z
x,y,z
1/2+x,1/2+y,1/2+z
loop_
_atom_site_label
_atom_site_fract_x
_atom_site_fract_y
_atom_site_fract_z
Fe   0.00000   0.00000   0.00000
